; PUSH cw_2 DUP1 PUSH cw_2 SWAP1 => PUSH cw_2 DUP1 DUP2
(set-option :produce-proofs true)
; 
(set-info :status unknown)
(declare-fun storage_t ((_ BitVec 256) Int (_ BitVec 256)) (_ BitVec 256))
(declare-fun w_2 () (_ BitVec 256))
(declare-fun storage_s ((_ BitVec 256) Int (_ BitVec 256)) (_ BitVec 256))
(declare-fun exc_halt_t (Int) Bool)
(declare-fun exc_halt_s (Int) Bool)
(declare-fun sc_t (Int) (_ BitVec 6))
(declare-fun stack_t ((_ BitVec 256) Int (_ BitVec 6)) (_ BitVec 256))
(declare-fun stack_s ((_ BitVec 256) Int (_ BitVec 6)) (_ BitVec 256))
(declare-fun sc_s (Int) (_ BitVec 6))
(declare-fun used_gas_t ((_ BitVec 256) Int) Int)
(declare-fun used_gas_s ((_ BitVec 256) Int) Int)
(assert
 (let (($x6928 (forall ((w (_ BitVec 256)) )(let ((?x2207 (storage_t w_2 3 w)))
 (let ((?x1865 (storage_s w_2 4 w)))
 (= ?x1865 ?x2207))))
 ))
 (let (($x3614 (exc_halt_t 3)))
 (let (($x7172 (exc_halt_s 4)))
 (let (($x5999 (= $x7172 $x3614)))
 (let (($x8809 (forall ((n (_ BitVec 6)) )(let ((?x607 (stack_t w_2 3 n)))
 (let ((?x1066 (stack_s w_2 4 n)))
 (let (($x7450 (= ?x1066 ?x607)))
 (or $x7450 (bvsle (sc_t 3) n))))))
 ))
 (let ((?x11304 (sc_t 3)))
 (let ((?x4305 (sc_s 4)))
 (let (($x9271 (= ?x4305 ?x11304)))
 (let ((?x5178 (used_gas_t w_2 0)))
 (let ((?x10803 (used_gas_s w_2 0)))
 (let (($x6187 (= ?x10803 ?x5178)))
 (let (($x2621 (forall ((w (_ BitVec 256)) )(let ((?x5168 (storage_t w_2 0 w)))
 (let ((?x11797 (storage_s w_2 0 w)))
 (= ?x11797 ?x5168))))
 ))
 (let (($x56 (exc_halt_t 0)))
 (let (($x57 (exc_halt_s 0)))
 (let (($x58 (= $x57 $x56)))
 (let (($x1827 (forall ((n (_ BitVec 6)) )(let ((?x2591 (stack_t w_2 0 n)))
 (let ((?x4640 (stack_s w_2 0 n)))
 (let (($x7029 (= ?x4640 ?x2591)))
 (let ((?x63 (sc_t 0)))
 (let (($x3635 (bvsle ?x63 n)))
 (or $x3635 $x7029)))))))
 ))
 (let ((?x63 (sc_t 0)))
 (let ((?x72 (sc_s 0)))
 (let (($x73 (= ?x72 ?x63)))
 (let (($x3986 (exc_halt_t 2)))
 (let (($x3564 (not (= ((_ extract 6 6) (bvadd (_ bv1 7) (concat (_ bv0 1) (sc_t 2)))) (_ bv0 1)))))
 (let (($x10912 (forall ((w (_ BitVec 256)) )(let ((?x7919 (storage_t w_2 2 w)))
 (let ((?x2207 (storage_t w_2 3 w)))
 (= ?x2207 ?x7919))))
 ))
 (let (($x9559 (forall ((n (_ BitVec 6)) )(or (= (stack_t w_2 3 n) (stack_t w_2 2 n)) (bvsle (bvadd (_ bv62 6) (sc_t 2)) n)))
 ))
 (let (($x4829 (= ?x11304 (bvadd (_ bv1 6) (sc_t 2)))))
 (let ((?x2714 (sc_t 2)))
 (let ((?x2069 (bvadd (_ bv63 6) ?x2714)))
 (let ((?x11162 (stack_t w_2 2 ?x2069)))
 (let ((?x4096 (bvadd (_ bv62 6) ?x2714)))
 (let ((?x8600 (stack_t w_2 2 ?x4096)))
 (let (($x10316 (not (= ((_ extract 6 6) (bvadd (_ bv1 7) (concat (_ bv0 1) (sc_t 1)))) (_ bv0 1)))))
 (let (($x8377 (exc_halt_t 1)))
 (let (($x7836 (not (bvsle (_ bv0 6) (bvadd (_ bv63 6) (sc_t 1))))))
 (let (($x4851 (= $x3986 (or $x7836 $x8377 $x10316))))
 (let (($x8841 (forall ((w (_ BitVec 256)) )(let ((?x7192 (storage_t w_2 1 w)))
 (let ((?x7919 (storage_t w_2 2 w)))
 (= ?x7919 ?x7192))))
 ))
 (let (($x373 (forall ((n (_ BitVec 6)) )(let ((?x7154 (sc_t 1)))
 (let ((?x7806 (bvadd (_ bv63 6) ?x7154)))
 (let (($x7722 (bvsle ?x7806 n)))
 (or $x7722 (= (stack_t w_2 2 n) (stack_t w_2 1 n)))))))
 ))
 (let (($x832 (= ?x2714 (bvadd (_ bv1 6) (sc_t 1)))))
 (let ((?x7154 (sc_t 1)))
 (let ((?x7806 (bvadd (_ bv63 6) ?x7154)))
 (let ((?x7332 (stack_t w_2 1 ?x7806)))
 (let (($x343 (= $x8377 (or $x56 (not (= ((_ extract 6 6) (bvadd (_ bv1 7) (concat (_ bv0 1) ?x63))) (_ bv0 1)))))))
 (let (($x8797 (forall ((w (_ BitVec 256)) )(let ((?x5168 (storage_t w_2 0 w)))
 (let ((?x7192 (storage_t w_2 1 w)))
 (= ?x7192 ?x5168))))
 ))
 (let (($x9842 (forall ((n (_ BitVec 6)) )(let ((?x63 (sc_t 0)))
 (let (($x3635 (bvsle ?x63 n)))
 (or (= (stack_t w_2 1 n) (stack_t w_2 0 n)) $x3635))))
 ))
 (let (($x5902 (= ?x7154 (bvadd (_ bv1 6) ?x63))))
 (let (($x5892 (= $x7172 (or (exc_halt_s 3) (not (bvsle (_ bv0 6) (bvadd (_ bv62 6) (sc_s 3))))))))
 (let (($x4098 (forall ((w (_ BitVec 256)) )(let ((?x6902 (storage_s w_2 3 w)))
 (let ((?x1865 (storage_s w_2 4 w)))
 (= ?x1865 ?x6902))))
 ))
 (let (($x4170 (forall ((n (_ BitVec 6)) )(let ((?x275 (sc_s 3)))
 (let ((?x3211 (bvadd (_ bv62 6) ?x275)))
 (let (($x9286 (bvsle ?x3211 n)))
 (or (= (stack_s w_2 4 n) (stack_s w_2 3 n)) $x9286)))))
 ))
 (let ((?x275 (sc_s 3)))
 (let (($x8666 (= ?x4305 ?x275)))
 (let (($x1627 (= (stack_s w_2 4 (bvadd (_ bv62 6) ?x4305)) (stack_s w_2 3 (bvadd (_ bv63 6) ?x275)))))
 (let (($x495 (= (stack_s w_2 4 (bvadd (_ bv63 6) ?x4305)) (stack_s w_2 3 (bvadd (_ bv62 6) ?x275)))))
 (let (($x4376 (not (= ((_ extract 6 6) (bvadd (_ bv1 7) (concat (_ bv0 1) (sc_s 2)))) (_ bv0 1)))))
 (let (($x247 (exc_halt_s 2)))
 (let (($x292 (exc_halt_s 3)))
 (let (($x2187 (forall ((w (_ BitVec 256)) )(let ((?x3308 (storage_s w_2 2 w)))
 (let ((?x6902 (storage_s w_2 3 w)))
 (= ?x6902 ?x3308))))
 ))
 (let (($x1995 (forall ((n (_ BitVec 6)) )(or (= (stack_s w_2 3 n) (stack_s w_2 2 n)) (bvsle (sc_s 2) n)))
 ))
 (let (($x2545 (= ?x275 (bvadd (_ bv1 6) (sc_s 2)))))
 (let (($x189 (exc_halt_s 1)))
 (let (($x11261 (or $x189 (not (= ((_ extract 6 6) (bvadd (_ bv1 7) (concat (_ bv0 1) (sc_s 1)))) (_ bv0 1))) (not (bvsle (_ bv0 6) (bvadd (_ bv63 6) (sc_s 1)))))))
 (let (($x6744 (= $x247 $x11261)))
 (let (($x4333 (forall ((w (_ BitVec 256)) )(let ((?x10430 (storage_s w_2 1 w)))
 (let ((?x3308 (storage_s w_2 2 w)))
 (= ?x3308 ?x10430))))
 ))
 (let (($x5668 (forall ((n (_ BitVec 6)) )(let ((?x154 (sc_s 1)))
 (let ((?x2974 (bvadd (_ bv63 6) ?x154)))
 (let (($x9963 (bvsle ?x2974 n)))
 (or (= (stack_s w_2 2 n) (stack_s w_2 1 n)) $x9963)))))
 ))
 (let ((?x218 (sc_s 2)))
 (let (($x8546 (= ?x218 (bvadd (_ bv1 6) (sc_s 1)))))
 (let ((?x154 (sc_s 1)))
 (let ((?x2974 (bvadd (_ bv63 6) ?x154)))
 (let ((?x7907 (stack_s w_2 1 ?x2974)))
 (let (($x4511 (= $x189 (or $x57 (not (= ((_ extract 6 6) (bvadd (_ bv1 7) (concat (_ bv0 1) ?x72))) (_ bv0 1)))))))
 (let (($x993 (forall ((w (_ BitVec 256)) )(let ((?x11797 (storage_s w_2 0 w)))
 (let ((?x10430 (storage_s w_2 1 w)))
 (= ?x10430 ?x11797))))
 ))
 (let (($x6382 (forall ((n (_ BitVec 6)) )(let ((?x72 (sc_s 0)))
 (let (($x6457 (bvsle ?x72 n)))
 (or $x6457 (= (stack_s w_2 1 n) (stack_s w_2 0 n))))))
 ))
 (let (($x1755 (= ?x154 (bvadd (_ bv1 6) ?x72))))
 (let (($x7879 (forall ((w (_ BitVec 256)) )(let ((?x11797 (storage_s w_2 0 w)))
 (= ?x11797 (_ bv0 256))))
 ))
 (let (($x7361 (= ?x10803 0)))
 (let (($x4768 (not $x57)))
 (let (($x1074 (= ?x72 (_ bv0 6))))
 (and $x1074 $x4768 $x7361 $x7879 (= (stack_s w_2 1 ?x72) w_2) (= (used_gas_s w_2 1) (+ 3 ?x10803)) $x1755 $x6382 $x993 $x4511 (= (stack_s w_2 2 (bvadd (_ bv63 6) ?x218)) ?x7907) (= (stack_s w_2 2 ?x2974) ?x7907) (= (used_gas_s w_2 2) (+ 3 (used_gas_s w_2 1))) $x8546 $x5668 $x4333 $x6744 (= (stack_s w_2 3 ?x218) w_2) (= (used_gas_s w_2 3) (+ 3 (used_gas_s w_2 2))) $x2545 $x1995 $x2187 (= $x292 (or $x247 $x4376)) $x495 $x1627 (= (used_gas_s w_2 4) (+ 3 (used_gas_s w_2 3))) $x8666 $x4170 $x4098 $x5892 (= (stack_t w_2 1 ?x63) w_2) (= (used_gas_t w_2 1) (+ 3 ?x5178)) $x5902 $x9842 $x8797 $x343 (= ?x11162 ?x7332) (= (stack_t w_2 2 ?x7806) ?x7332) (= (used_gas_t w_2 2) (+ 3 (used_gas_t w_2 1))) $x832 $x373 $x8841 $x4851 (= (stack_t w_2 3 (bvadd (_ bv63 6) ?x11304)) ?x8600) (= (stack_t w_2 3 ?x4096) ?x8600) (= (stack_t w_2 3 ?x2069) ?x11162) (= (used_gas_t w_2 3) (+ 3 (used_gas_t w_2 2))) $x4829 $x9559 $x10912 (= $x3614 (or $x3564 $x3986 (not (bvsle (_ bv0 6) ?x4096)))) $x73 $x1827 $x58 $x2621 $x6187 (not (and $x9271 $x8809 $x5999 $x6928))))))))))))))))))))))))))))))))))))))))))))))))))))))))))))))))))))))))))))))
(check-sat)
(get-proof)
